
Gurobi 10.0.1 (linux64) logging started Sun Nov 26 15:37:27 2023

Set parameter LogFile to value "ArtificialInstance/ExperimentV2/S3T5K2/AdRo/gurobi1.txt"
Gurobi Optimizer version 10.0.1 build v10.0.1rc0 (linux64)

CPU model: AMD EPYC 7H12 64-Core Processor, instruction set [SSE2|AVX|AVX2]
Thread count: 128 physical cores, 128 logical processors, using up to 32 threads

Academic license 656792 - for non-commercial use only - registered to b.___@student.vu.nl
Optimize a model with 11219 rows, 10573 columns and 41059 nonzeros
Model fingerprint: 0x869aa1c3
Variable types: 1 continuous, 10572 integer (10572 binary)
Coefficient statistics:
  Matrix range     [1e+00, 4e+01]
  Objective range  [1e+00, 2e+01]
  Bounds range     [1e+00, 1e+00]
  RHS range        [1e+00, 1e+00]
Presolve removed 2596 rows and 2675 columns
Presolve time: 0.23s
Presolved: 8623 rows, 7898 columns, 31211 nonzeros
Variable types: 1 continuous, 7897 integer (7897 binary)
Found heuristic solution: objective 472.2430980

Root relaxation: objective 6.820133e+01, 4745 iterations, 0.32 seconds (0.27 work units)

    Nodes    |    Current Node    |     Objective Bounds      |     Work
 Expl Unexpl |  Obj  Depth IntInf | Incumbent    BestBd   Gap | It/Node Time

     0     0   68.20133    0    2  472.24310   68.20133  85.6%     -    0s
H    0     0                      71.6490916   68.20133  4.81%     -    0s
H    0     0                      68.3471120   68.20133  0.21%     -    0s
*    0     0               0      68.2013317   68.20133  0.00%     -    0s

Cutting planes:
  Gomory: 1
  MIR: 1

Explored 1 nodes (6860 simplex iterations) in 0.70 seconds (0.53 work units)
Thread count was 32 (of 128 available processors)

Solution count 4: 68.2013 68.3471 71.6491 472.243 

Optimal solution found (tolerance 1.00e-04)
Best objective 6.820133171192e+01, best bound 6.820133171192e+01, gap 0.0000%
